100 10
677 420
482 478
573 336
578 533
523 191
642 861
360 609
401 392
553 279
581 304
432 502
257 412
619 387
188 795
404 479
209 794
681 503
379 448
314 762
514 228
701 373
725 21
700 225
164 591
616 454
569 343
805 504
148 620
325 630
740 472
259 975
705 261
777 371
349 787
768 576
916 870
266 379
190 578
442 76
470 131
671 351
691 788
372 427
429 152
284 644
75 474
786 826
112 617
706 569
425 431
771 389
811 141
712 360
828 577
605 431
590 721
373 254
97 529
523 72
766 279
251 733
282 854
423 596
295 742
320 720
391 854
145 588
379 249
251 607
751 424
671 296
596 717
406 461
870 576
477 637
273 548
349 870
576 410
385 692
233 467
537 241
862 367
132 256
363 500
788 734
255 472
81 364
335 280
190 590
730 375
466 357
688 245
475 530
366 386
875 644
505 656
165 408
633 349
748 195
353 660
